f:28515978
solution:
172 44 81 140 82 86 149 31 28 133 3 22 187 62 104 131 171 166 146 20 96 199 116 40 107 35 16 78 161 182 91 56 165 73 92 160 194 10 111 54 42 74 49 123 119 13 66 29 121 139 33 47 72 43 32 98 193 136 164 83 87 157 76 34 181 95 176 24 126 57 147 183 118 88 12 80 143 19 5 41 185 11 130 154 188 25 170 192 39 151 94 134 127 71 2 162 184 132 68 18 103 27 179 0 189 109 141 59 190 112 144 69 55 169 37 90 36 167 196 155 137 114 45 61 89 60 113 159 93 17 6 197 124 158 198 178 168 63 50 67 142 77 173 65 23 153 26 101 186 120 135 38 99 100 15 152 115 48 148 75 102 128 9 145 108 106 14 79 117 1 163 175 21 150 97 138 64 125 58 84 180 30 70 7 53 156 105 122 195 174 4 110 177 85 46 129 191 8 51 52 
